c This is a CNF SAT formula in the DIMACS CNF format,
c produced with the bc2cnf translator by Tommi Junttila;
c see http://users.ics.aalto.fi/tjunttil/circuits/index.html
c phi_Gamma <-> 1
c phi_T_feature_det <-> 1
c phi_T_transitions <-> 1
c phi_T_transitions_consistency <-> 1
c phi_T <-> 1
c phi_sim_leaves <-> 1
c phi_sim_transition <-> 1
c phi_sim <-> 1
c FORMULA <-> 1
c pi_1_9 <-> 2
c pi_0_9 <-> 15
c pi_1_8 <-> 34
c pi_0_8 <-> 40
c pi_1_7 <-> 53
c pi_0_7 <-> 59
c pi_1_6 <-> 75
c pi_0_6 <-> 78
c pi_1_5 <-> 91
c pi_0_5 <-> 104
c pi_1_4 <-> 123
c pi_0_4 <-> 125
c pi_1_1 <-> 138
c pi_1_3 <-> 138
c pi_0_1 <-> 144
c pi_0_3 <-> 144
c pi_1_2 <-> 164
c pi_0_2 <-> 170
c pi_1_0 <-> 183
c pi_0_0 <-> 186
c alp_approved_0_0 <-> 202
c alp_approved_1_1 <-> 202
c alp_approved_0_2 <-> 202
c alp_approved_1_3 <-> 202
c alp_approved_1_4 <-> 202
c alp_approved_0_5 <-> 202
c alp_approved_1_6 <-> 202
c alp_approved_1_7 <-> 202
c alp_approved_1_8 <-> 202
c alp_approved_1_9 <-> 202
c alp_approved_0_1 <-> 203
c alp_approved_0_3 <-> 203
c alp_approved_0_4 <-> 203
c alp_approved_0_6 <-> 203
c alp_approved_0_7 <-> 203
c alp_approved_0_8 <-> 203
c alp_approved_0_9 <-> 203
c approved_P0 <-> 203
c alp_approved_1_0 <-> 204
c alp_approved_1_2 <-> 204
c alp_approved_1_5 <-> 204
c approved_P100 <-> 204
c tau_1_3_approved_1 <-> 241
c tau_1_3_approved_0 <-> 242
c tau_1_2_approved_1 <-> 243
c tau_1_2_approved_0 <-> 244
c tau_1_1_approved_1 <-> 245
c tau_1_1_approved_0 <-> 246
c tau_1_0_approved_1 <-> 247
c tau_1_0_approved_0 <-> 248
c tau_0_3_approved_1 <-> 286
c tau_0_3_approved_0 <-> 287
c tau_0_3_1 <-> 288
c tau_0_2_approved_1 <-> 289
c tau_0_2_approved_0 <-> 290
c tau_0_2_1 <-> 291
c tau_0_1_approved_1 <-> 292
c tau_0_1_approved_0 <-> 293
c tau_0_1_1 <-> 294
c tau_0_0_approved_1 <-> 295
c tau_0_0_approved_0 <-> 296
c tau_0_0_1 <-> 297
c lam_1_credit_score <-> 311
c lam_1_dependents <-> 313
c lam_1_monthly_income <-> 315
c lam_1_age <-> 316
c lam_0_credit_score <-> 330
c lam_0_dependents <-> 332
c lam_0_monthly_income <-> 334
c lam_0_age <-> 335
p wcnf 335 946 11  
11 1 0
11 2 -3 0
11 2 -4 0
11 -2 4 3 0
11 -3 10 0
11 -3 311 0
11 3 -311 -10 0
11 4 -5 0
11 4 -8 0
11 -4 8 5 0
11 -5 6 0
11 -5 313 0
11 5 -313 -6 0
11 -6 -245 0
11 -6 7 0
11 6 -7 245 0
11 7 246 0
11 7 -203 0
11 -7 203 -246 0
11 8 -9 0
11 8 -12 0
11 -8 12 9 0
11 -9 10 0
11 -9 315 0
11 9 -315 -10 0
11 -10 -247 0
11 -10 11 0
11 10 -11 247 0
11 11 248 0
11 11 -203 0
11 -11 203 -248 0
11 -12 13 0
11 -12 316 0
11 12 -316 -13 0
11 -13 -243 0
11 -13 14 0
11 13 -14 243 0
11 14 244 0
11 14 -203 0
11 -14 203 -244 0
11 15 -16 0
11 15 -17 0
11 -15 17 16 0
1 15 0
11 -16 25 0
11 -16 330 0
11 16 -330 -25 0
11 17 -18 0
11 17 -23 0
11 -17 23 18 0
11 -18 19 0
11 -18 332 0
11 18 -332 -19 0
11 -19 -292 0
11 -19 20 0
11 19 -20 292 0
11 -20 21 0
11 -20 22 0
11 20 -22 -21 0
11 21 293 0
11 21 -203 0
11 -21 203 -293 0
11 22 -2 0
11 22 294 0
11 -22 -294 2 0
11 23 -24 0
11 23 -29 0
11 -23 29 24 0
11 -24 25 0
11 -24 334 0
11 24 -334 -25 0
11 -25 -295 0
11 -25 26 0
11 25 -26 295 0
11 -26 27 0
11 -26 28 0
11 26 -28 -27 0
11 27 296 0
11 27 -203 0
11 -27 203 -296 0
11 28 -2 0
11 28 297 0
11 -28 -297 2 0
11 -29 30 0
11 -29 335 0
11 29 -335 -30 0
11 -30 -289 0
11 -30 31 0
11 30 -31 289 0
11 -31 32 0
11 -31 33 0
11 31 -33 -32 0
11 32 290 0
11 32 -203 0
11 -32 203 -290 0
11 33 -2 0
11 33 291 0
11 -33 -291 2 0
11 34 -35 0
11 34 -36 0
11 -34 36 35 0
11 -35 6 0
11 -35 311 0
11 35 -311 -6 0
11 36 -5 0
11 36 -37 0
11 -36 37 5 0
11 37 -38 0
11 37 -39 0
11 -37 39 38 0
11 -38 6 0
11 -38 315 0
11 38 -315 -6 0
11 -39 10 0
11 -39 316 0
11 39 -316 -10 0
11 40 -41 0
11 40 -42 0
11 -40 42 41 0
1 40 0
11 -41 46 0
11 -41 330 0
11 41 -330 -46 0
11 42 -43 0
11 42 -44 0
11 -42 44 43 0
11 -43 46 0
11 -43 332 0
11 43 -332 -46 0
11 44 -45 0
11 44 -49 0
11 -44 49 45 0
11 -45 46 0
11 -45 334 0
11 45 -334 -46 0
11 -46 -292 0
11 -46 47 0
11 46 -47 292 0
11 -47 21 0
11 -47 48 0
11 47 -48 -21 0
11 48 294 0
11 48 -34 0
11 -48 34 -294 0
11 -49 50 0
11 -49 335 0
11 49 -335 -50 0
11 -50 -295 0
11 -50 51 0
11 50 -51 295 0
11 -51 27 0
11 -51 52 0
11 51 -52 -27 0
11 52 297 0
11 52 -34 0
11 -52 34 -297 0
11 53 -54 0
11 53 -55 0
11 -53 55 54 0
11 -54 13 0
11 -54 311 0
11 54 -311 -13 0
11 55 -56 0
11 55 -57 0
11 -55 57 56 0
11 -56 10 0
11 -56 313 0
11 56 -313 -10 0
11 57 -9 0
11 57 -58 0
11 -57 58 9 0
11 -58 6 0
11 -58 316 0
11 58 -316 -6 0
11 59 -60 0
11 59 -64 0
11 -59 64 60 0
1 59 0
11 -60 61 0
11 -60 330 0
11 60 -330 -61 0
11 -61 -289 0
11 -61 62 0
11 61 -62 289 0
11 -62 32 0
11 -62 63 0
11 62 -63 -32 0
11 63 291 0
11 63 -53 0
11 -63 53 -291 0
11 64 -65 0
11 64 -66 0
11 -64 66 65 0
11 -65 68 0
11 -65 332 0
11 65 -332 -68 0
11 66 -67 0
11 66 -71 0
11 -66 71 67 0
11 -67 68 0
11 -67 334 0
11 67 -334 -68 0
11 -68 -295 0
11 -68 69 0
11 68 -69 295 0
11 -69 27 0
11 -69 70 0
11 69 -70 -27 0
11 70 297 0
11 70 -53 0
11 -70 53 -297 0
11 -71 72 0
11 -71 335 0
11 71 -335 -72 0
11 -72 -292 0
11 -72 73 0
11 72 -73 292 0
11 -73 21 0
11 -73 74 0
11 73 -74 -21 0
11 74 294 0
11 74 -53 0
11 -74 53 -294 0
11 75 -3 0
11 75 -76 0
11 -75 76 3 0
11 76 -56 0
11 76 -77 0
11 -76 77 56 0
11 77 -38 0
11 77 -58 0
11 -77 58 38 0
11 78 -79 0
11 78 -80 0
11 -78 80 79 0
1 78 0
11 -79 82 0
11 -79 330 0
11 79 -330 -82 0
11 80 -81 0
11 80 -85 0
11 -80 85 81 0
11 -81 82 0
11 -81 332 0
11 81 -332 -82 0
11 -82 -295 0
11 -82 83 0
11 82 -83 295 0
11 -83 27 0
11 -83 84 0
11 83 -84 -27 0
11 84 297 0
11 84 -75 0
11 -84 75 -297 0
11 85 -86 0
11 85 -87 0
11 -85 87 86 0
11 -86 88 0
11 -86 334 0
11 86 -334 -88 0
11 -87 88 0
11 -87 335 0
11 87 -335 -88 0
11 -88 -292 0
11 -88 89 0
11 88 -89 292 0
11 -89 21 0
11 -89 90 0
11 89 -90 -21 0
11 90 294 0
11 90 -75 0
11 -90 75 -294 0
11 91 -92 0
11 91 -95 0
11 -91 95 92 0
11 -92 93 0
11 -92 311 0
11 92 -311 -93 0
11 -93 -246 0
11 -93 94 0
11 93 -94 246 0
11 94 245 0
11 94 -204 0
11 -94 204 -245 0
11 95 -96 0
11 95 -97 0
11 -95 97 96 0
11 -96 99 0
11 -96 313 0
11 96 -313 -99 0
11 97 -98 0
11 97 -101 0
11 -97 101 98 0
11 -98 99 0
11 -98 315 0
11 98 -315 -99 0
11 -99 -248 0
11 -99 100 0
11 99 -100 248 0
11 100 247 0
11 100 -204 0
11 -100 204 -247 0
11 -101 102 0
11 -101 316 0
11 101 -316 -102 0
11 -102 103 0
11 -102 -242 0
11 102 242 -103 0
11 103 241 0
11 103 -204 0
11 -103 204 -241 0
11 104 -105 0
11 104 -110 0
11 -104 110 105 0
1 104 0
11 -105 106 0
11 -105 330 0
11 105 -330 -106 0
11 -106 107 0
11 -106 108 0
11 106 -108 -107 0
11 107 292 0
11 107 -204 0
11 -107 204 -292 0
11 -108 -293 0
11 -108 109 0
11 108 -109 293 0
11 109 294 0
11 109 -91 0
11 -109 91 -294 0
11 110 -111 0
11 110 -112 0
11 -110 112 111 0
11 -111 114 0
11 -111 332 0
11 111 -332 -114 0
11 112 -113 0
11 112 -118 0
11 -112 118 113 0
11 -113 114 0
11 -113 334 0
11 113 -334 -114 0
11 -114 115 0
11 -114 116 0
11 114 -116 -115 0
11 115 295 0
11 115 -204 0
11 -115 204 -295 0
11 -116 -296 0
11 -116 117 0
11 116 -117 296 0
11 117 297 0
11 117 -91 0
11 -117 91 -297 0
11 -118 119 0
11 -118 335 0
11 118 -335 -119 0
11 -119 120 0
11 -119 121 0
11 119 -121 -120 0
11 120 286 0
11 120 -204 0
11 -120 204 -286 0
11 -121 -287 0
11 -121 122 0
11 121 -122 287 0
11 122 -91 0
11 122 288 0
11 -122 -288 91 0
11 123 -3 0
11 123 -124 0
11 -123 124 3 0
11 124 -8 0
11 124 -56 0
11 -124 56 8 0
11 125 -126 0
11 125 -127 0
11 -125 127 126 0
1 125 0
11 -126 131 0
11 -126 330 0
11 126 -330 -131 0
11 127 -128 0
11 127 -129 0
11 -127 129 128 0
11 -128 131 0
11 -128 332 0
11 128 -332 -131 0
11 129 -130 0
11 129 -134 0
11 -129 134 130 0
11 -130 131 0
11 -130 334 0
11 130 -334 -131 0
11 -131 -295 0
11 -131 132 0
11 131 -132 295 0
11 -132 27 0
11 -132 133 0
11 132 -133 -27 0
11 133 297 0
11 133 -123 0
11 -133 123 -297 0
11 -134 135 0
11 -134 335 0
11 134 -335 -135 0
11 -135 -289 0
11 -135 136 0
11 135 -136 289 0
11 -136 32 0
11 -136 137 0
11 136 -137 -32 0
11 137 291 0
11 137 -123 0
11 -137 123 -291 0
11 138 -54 0
11 138 -139 0
11 -138 139 54 0
11 139 -5 0
11 139 -140 0
11 -139 140 5 0
11 140 -9 0
11 140 -141 0
11 -140 141 9 0
11 -141 142 0
11 -141 316 0
11 141 -316 -142 0
11 -142 -241 0
11 -142 143 0
11 142 -143 241 0
11 143 242 0
11 143 -203 0
11 -143 203 -242 0
11 144 -145 0
11 144 -149 0
11 -144 149 145 0
1 144 0
11 -145 146 0
11 -145 330 0
11 145 -330 -146 0
11 -146 -289 0
11 -146 147 0
11 146 -147 289 0
11 -147 32 0
11 -147 148 0
11 147 -148 -32 0
11 148 291 0
11 148 -138 0
11 -148 138 -291 0
11 149 -150 0
11 149 -154 0
11 -149 154 150 0
11 -150 151 0
11 -150 332 0
11 150 -332 -151 0
11 -151 -292 0
11 -151 152 0
11 151 -152 292 0
11 -152 21 0
11 -152 153 0
11 152 -153 -21 0
11 153 294 0
11 153 -138 0
11 -153 138 -294 0
11 154 -155 0
11 154 -159 0
11 -154 159 155 0
11 -155 156 0
11 -155 334 0
11 155 -334 -156 0
11 -156 -295 0
11 -156 157 0
11 156 -157 295 0
11 -157 27 0
11 -157 158 0
11 157 -158 -27 0
11 158 297 0
11 158 -138 0
11 -158 138 -297 0
11 -159 160 0
11 -159 335 0
11 159 -335 -160 0
11 -160 -286 0
11 -160 161 0
11 160 -161 286 0
11 -161 162 0
11 -161 163 0
11 161 -163 -162 0
11 162 287 0
11 162 -203 0
11 -162 203 -287 0
11 163 288 0
11 163 -138 0
11 -163 138 -288 0
11 164 -165 0
11 164 -166 0
11 -164 166 165 0
11 -165 99 0
11 -165 311 0
11 165 -311 -99 0
11 166 -96 0
11 166 -167 0
11 -166 167 96 0
11 167 -168 0
11 167 -169 0
11 -167 169 168 0
11 -168 93 0
11 -168 315 0
11 168 -315 -93 0
11 -169 93 0
11 -169 316 0
11 169 -316 -93 0
11 170 -171 0
11 170 -172 0
11 -170 172 171 0
1 170 0
11 -171 174 0
11 -171 330 0
11 171 -330 -174 0
11 172 -173 0
11 172 -177 0
11 -172 177 173 0
11 -173 174 0
11 -173 332 0
11 173 -332 -174 0
11 -174 115 0
11 -174 175 0
11 174 -175 -115 0
11 -175 -296 0
11 -175 176 0
11 175 -176 296 0
11 176 297 0
11 176 -164 0
11 -176 164 -297 0
11 177 -178 0
11 177 -179 0
11 -177 179 178 0
11 -178 180 0
11 -178 334 0
11 178 -334 -180 0
11 -179 180 0
11 -179 335 0
11 179 -335 -180 0
11 -180 107 0
11 -180 181 0
11 180 -181 -107 0
11 -181 -293 0
11 -181 182 0
11 181 -182 293 0
11 182 294 0
11 182 -164 0
11 -182 164 -294 0
11 183 -165 0
11 183 -184 0
11 -183 184 165 0
11 184 -96 0
11 184 -185 0
11 -184 185 96 0
11 185 -101 0
11 185 -168 0
11 -185 168 101 0
11 186 -187 0
11 186 -188 0
11 -186 188 187 0
1 186 0
11 -187 190 0
11 -187 330 0
11 187 -330 -190 0
11 188 -189 0
11 188 -193 0
11 -188 193 189 0
11 -189 190 0
11 -189 332 0
11 189 -332 -190 0
11 -190 115 0
11 -190 191 0
11 190 -191 -115 0
11 -191 -296 0
11 -191 192 0
11 191 -192 296 0
11 192 297 0
11 192 -183 0
11 -192 183 -297 0
11 193 -194 0
11 193 -198 0
11 -193 198 194 0
11 -194 195 0
11 -194 334 0
11 194 -334 -195 0
11 -195 107 0
11 -195 196 0
11 195 -196 -107 0
11 -196 -293 0
11 -196 197 0
11 196 -197 293 0
11 197 294 0
11 197 -183 0
11 -197 183 -294 0
11 -198 199 0
11 -198 335 0
11 198 -335 -199 0
11 -199 120 0
11 -199 200 0
11 199 -200 -120 0
11 -200 -287 0
11 -200 201 0
11 200 -201 287 0
11 201 288 0
11 201 -183 0
11 -201 183 -288 0
11 -202 0
11 205 311 0
11 205 -206 0
11 -205 206 -311 0
11 205 0
11 -206 -241 0
11 -206 -242 0
11 206 242 241 0
11 207 313 0
11 207 -208 0
11 -207 208 -313 0
11 207 0
11 -208 -241 0
11 -208 209 0
11 208 -209 241 0
11 -209 -242 0
11 -209 210 0
11 209 -210 242 0
11 -210 -243 0
11 -210 -244 0
11 210 244 243 0
11 211 -208 0
11 211 315 0
11 -211 -315 208 0
11 211 0
11 212 330 0
11 212 -213 0
11 -212 213 -330 0
11 212 0
11 -213 -286 0
11 -213 214 0
11 213 -214 286 0
11 -214 -287 0
11 -214 -288 0
11 214 288 287 0
11 215 332 0
11 215 -216 0
11 -215 216 -332 0
11 215 0
11 -216 -286 0
11 -216 217 0
11 216 -217 286 0
11 -217 -287 0
11 -217 218 0
11 217 -218 287 0
11 -218 -288 0
11 -218 219 0
11 218 -219 288 0
11 -219 -289 0
11 -219 220 0
11 219 -220 289 0
11 -220 -290 0
11 -220 -291 0
11 220 291 290 0
11 221 -216 0
11 221 334 0
11 -221 -334 216 0
11 221 0
11 222 311 0
11 222 -223 0
11 -222 223 -311 0
11 222 0
11 -223 224 0
11 -223 227 0
11 223 -227 -224 0
11 224 -225 0
11 224 -226 0
11 -224 226 225 0
11 -225 -244 0
11 -225 243 0
11 225 -243 244 0
11 -226 -243 0
11 -226 244 0
11 226 -244 243 0
11 -227 228 0
11 -227 231 0
11 227 -231 -228 0
11 228 -229 0
11 228 -230 0
11 -228 230 229 0
11 -229 -246 0
11 -229 245 0
11 229 -245 246 0
11 -230 -245 0
11 -230 246 0
11 230 -246 245 0
11 231 -232 0
11 231 -233 0
11 -231 233 232 0
11 -232 -248 0
11 -232 247 0
11 232 -247 248 0
11 -233 -247 0
11 -233 248 0
11 233 -248 247 0
11 234 313 0
11 234 -227 0
11 -234 227 -313 0
11 234 0
11 235 315 0
11 235 -227 0
11 -235 227 -315 0
11 235 0
11 236 316 0
11 236 -237 0
11 -236 237 -316 0
11 236 0
11 -237 223 0
11 -237 238 0
11 237 -238 -223 0
11 238 -239 0
11 238 -240 0
11 -238 240 239 0
11 -239 -242 0
11 -239 241 0
11 239 -241 242 0
11 -240 -241 0
11 -240 242 0
11 240 -242 241 0
11 249 330 0
11 249 -250 0
11 -249 250 -330 0
11 249 0
11 -250 251 0
11 -250 258 0
11 250 -258 -251 0
11 251 -252 0
11 251 -256 0
11 -251 256 252 0
11 252 -253 0
11 252 -254 0
11 -252 254 253 0
11 -253 220 0
11 -253 289 0
11 253 -289 -220 0
11 -254 255 0
11 -254 290 0
11 254 -290 -255 0
11 -255 -289 0
11 -255 -291 0
11 255 291 289 0
11 -256 257 0
11 -256 291 0
11 256 -291 -257 0
11 -257 -289 0
11 -257 -290 0
11 257 290 289 0
11 -258 259 0
11 -258 267 0
11 258 -267 -259 0
11 259 -260 0
11 259 -265 0
11 -259 265 260 0
11 260 -261 0
11 260 -263 0
11 -260 263 261 0
11 -261 262 0
11 -261 292 0
11 261 -292 -262 0
11 -262 -293 0
11 -262 -294 0
11 262 294 293 0
11 -263 264 0
11 -263 293 0
11 263 -293 -264 0
11 -264 -292 0
11 -264 -294 0
11 264 294 292 0
11 -265 266 0
11 -265 294 0
11 265 -294 -266 0
11 -266 -292 0
11 -266 -293 0
11 266 293 292 0
11 267 -268 0
11 267 -273 0
11 -267 273 268 0
11 268 -269 0
11 268 -271 0
11 -268 271 269 0
11 -269 270 0
11 -269 295 0
11 269 -295 -270 0
11 -270 -296 0
11 -270 -297 0
11 270 297 296 0
11 -271 272 0
11 -271 296 0
11 271 -296 -272 0
11 -272 -295 0
11 -272 -297 0
11 272 297 295 0
11 -273 274 0
11 -273 297 0
11 273 -297 -274 0
11 -274 -295 0
11 -274 -296 0
11 274 296 295 0
11 275 332 0
11 275 -258 0
11 -275 258 -332 0
11 275 0
11 276 334 0
11 276 -258 0
11 -276 258 -334 0
11 276 0
11 277 335 0
11 277 -278 0
11 -277 278 -335 0
11 277 0
11 -278 250 0
11 -278 279 0
11 278 -279 -250 0
11 279 -280 0
11 279 -284 0
11 -279 284 280 0
11 280 -281 0
11 280 -282 0
11 -280 282 281 0
11 -281 214 0
11 -281 286 0
11 281 -286 -214 0
11 -282 283 0
11 -282 287 0
11 282 -287 -283 0
11 -283 -286 0
11 -283 -288 0
11 283 288 286 0
11 -284 285 0
11 -284 288 0
11 284 -288 -285 0
11 -285 -286 0
11 -285 -287 0
11 285 287 286 0
11 298 -299 0
11 298 -302 0
11 -298 302 299 0
11 298 0
11 -299 -313 0
11 -299 300 0
11 299 -300 313 0
11 -300 -315 0
11 -300 301 0
11 300 -301 315 0
11 -301 -316 0
11 -301 311 0
11 301 -311 316 0
11 302 -303 0
11 302 -306 0
11 -302 306 303 0
11 -303 -311 0
11 -303 304 0
11 303 -304 311 0
11 -304 -315 0
11 -304 305 0
11 304 -305 315 0
11 -305 -316 0
11 -305 313 0
11 305 -313 316 0
11 306 -307 0
11 306 -310 0
11 -306 310 307 0
11 -307 -311 0
11 -307 308 0
11 307 -308 311 0
11 -308 -313 0
11 -308 309 0
11 308 -309 313 0
11 -309 -316 0
11 -309 315 0
11 309 -315 316 0
11 -310 -311 0
11 -310 312 0
11 310 -312 311 0
11 -312 -313 0
11 -312 314 0
11 312 -314 313 0
11 -314 -315 0
11 -314 316 0
11 314 -316 315 0
11 317 -318 0
11 317 -321 0
11 -317 321 318 0
11 317 0
11 -318 -332 0
11 -318 319 0
11 318 -319 332 0
11 -319 -334 0
11 -319 320 0
11 319 -320 334 0
11 -320 -335 0
11 -320 330 0
11 320 -330 335 0
11 321 -322 0
11 321 -325 0
11 -321 325 322 0
11 -322 -330 0
11 -322 323 0
11 322 -323 330 0
11 -323 -334 0
11 -323 324 0
11 323 -324 334 0
11 -324 -335 0
11 -324 332 0
11 324 -332 335 0
11 325 -326 0
11 325 -329 0
11 -325 329 326 0
11 -326 -330 0
11 -326 327 0
11 326 -327 330 0
11 -327 -332 0
11 -327 328 0
11 327 -328 332 0
11 -328 -335 0
11 -328 334 0
11 328 -334 335 0
11 -329 -330 0
11 -329 331 0
11 329 -331 330 0
11 -331 -332 0
11 -331 333 0
11 331 -333 332 0
11 -333 -334 0
11 -333 335 0
11 333 -335 334 0
